14
2 7 1 4 2 0 2 13 7 6 0 0 9 4 12 13 12 5 3 5 11 4 8 6 5 8 0 11 11 6 1 9 13 10 10 0 13 12 7 3 4 1 7 6 4 13 11 7 3 2 2 9 7 11 12 8 2 7 5 12 5 9 8 5 7 2 5 6 11 3 12 5 11 8 10 12 9 3 10 1 9 1 13 3 1 3 9 4 6 2 8 8 6 1 10 13 2 10 13 10 